c numero: 36
c nombre: n-40-d-0.3
c densidad: 0.3
p edges 40 201
e 1 8
e 1 11
e 1 26
e 1 27
e 1 28
e 1 30
e 1 34
e 1 35
e 1 37
e 1 38
e 2 6
e 2 10
e 2 12
e 2 13
e 2 15
e 2 32
e 2 34
e 2 38
e 2 40
e 3 4
e 3 5
e 3 7
e 3 10
e 3 11
e 3 19
e 3 25
e 3 27
e 3 37
e 3 38
e 4 5
e 4 7
e 4 8
e 4 9
e 4 16
e 4 18
e 4 24
e 4 28
e 4 31
e 4 36
e 4 37
e 4 39
e 5 7
e 5 8
e 5 9
e 5 10
e 5 12
e 5 21
e 5 25
e 5 30
e 5 31
e 5 33
e 5 38
e 6 7
e 6 8
e 6 11
e 6 13
e 6 21
e 6 25
e 6 28
e 6 33
e 6 34
e 7 9
e 7 13
e 7 14
e 7 24
e 7 26
e 7 27
e 7 34
e 7 37
e 7 38
e 7 39
e 7 40
e 8 14
e 8 16
e 8 17
e 8 21
e 8 34
e 8 40
e 9 12
e 9 14
e 9 17
e 9 27
e 9 28
e 9 32
e 10 23
e 10 24
e 10 25
e 10 28
e 10 30
e 10 31
e 10 33
e 10 40
e 11 13
e 11 16
e 11 17
e 11 18
e 11 27
e 11 30
e 11 33
e 12 17
e 12 20
e 12 22
e 12 29
e 12 35
e 13 15
e 13 19
e 13 20
e 13 29
e 13 30
e 13 32
e 13 37
e 13 40
e 14 19
e 14 20
e 14 22
e 14 32
e 14 37
e 14 39
e 15 17
e 15 21
e 15 22
e 15 25
e 15 33
e 16 17
e 16 21
e 16 25
e 16 28
e 16 30
e 16 32
e 16 37
e 16 40
e 17 18
e 17 19
e 17 23
e 17 24
e 17 26
e 17 29
e 17 31
e 17 35
e 17 38
e 17 39
e 18 23
e 18 29
e 18 39
e 19 20
e 19 23
e 19 24
e 19 25
e 19 27
e 19 29
e 19 30
e 19 31
e 19 34
e 19 35
e 20 28
e 20 29
e 21 23
e 21 25
e 21 26
e 21 34
e 21 40
e 22 28
e 22 33
e 22 37
e 23 27
e 23 37
e 23 39
e 24 25
e 24 26
e 24 34
e 24 40
e 25 28
e 25 30
e 25 32
e 25 34
e 25 36
e 25 37
e 26 29
e 26 32
e 26 34
e 26 38
e 27 30
e 27 31
e 27 34
e 28 31
e 28 36
e 28 37
e 29 32
e 29 33
e 29 34
e 30 32
e 31 32
e 31 33
e 31 37
e 31 40
e 33 35
e 33 38
e 33 40
e 35 40
e 36 39
e 38 40
